p cnf 430 1488
-191 -168 0
-191 60 0
-191 -148 0
-191 190 0
-191 133 0
191 168 -60 148 -190 -133 0
-192 14 0
-192 -125 0
-192 -116 0
-192 189 0
-192 -111 0
192 -14 125 116 -189 111 0
-193 -144 0
-193 182 0
-193 185 0
-193 78 0
-193 85 0
193 144 -182 -185 -78 -85 0
-194 133 0
-194 113 0
-194 12 0
-194 -168 0
-194 -94 0
194 -133 -113 -12 168 94 0
-195 -56 0
-195 87 0
-195 -14 0
-195 -78 0
-195 128 0
195 56 -87 14 78 -128 0
191 192 193 194 195 0
-196 -156 0
-196 -154 0
-196 73 0
-196 164 0
-196 105 0
196 156 154 -73 -164 -105 0
-197 -168 0
-197 21 0
-197 -51 0
-197 -163 0
-197 176 0
197 168 -21 51 163 -176 0
-198 107 0
-198 -159 0
-198 57 0
-198 10 0
-198 85 0
198 -107 159 -57 -10 -85 0
-199 143 0
-199 40 0
-199 -163 0
-199 154 0
-199 -161 0
199 -143 -40 163 -154 161 0
-200 -34 0
-200 -134 0
-200 -12 0
-200 71 0
-200 121 0
200 34 134 12 -71 -121 0
196 197 198 199 200 0
-201 51 0
-201 -31 0
-201 -181 0
-201 141 0
-201 82 0
201 -51 31 181 -141 -82 0
-202 22 0
-202 124 0
-202 -81 0
-202 -131 0
-202 -57 0
202 -22 -124 81 131 57 0
-203 66 0
-203 -50 0
-203 -159 0
-203 -153 0
-203 89 0
203 -66 50 159 153 -89 0
-204 -10 0
-204 84 0
-204 -102 0
-204 178 0
-204 41 0
204 10 -84 102 -178 -41 0
-205 33 0
-205 83 0
-205 -116 0
-205 75 0
-205 151 0
205 -33 -83 116 -75 -151 0
201 202 203 204 205 0
-206 -112 0
-206 12 0
-206 172 0
-206 -178 0
-206 -179 0
206 112 -12 -172 178 179 0
-207 49 0
-207 139 0
-207 152 0
-207 -72 0
-207 183 0
207 -49 -139 -152 72 -183 0
-208 -172 0
-208 -51 0
-208 -162 0
-208 180 0
-208 -106 0
208 172 51 162 -180 106 0
-209 55 0
-209 166 0
-209 -82 0
-209 -39 0
-209 -73 0
209 -55 -166 82 39 73 0
-210 87 0
-210 -91 0
-210 61 0
-210 -49 0
-210 -59 0
210 -87 91 -61 49 59 0
206 207 208 209 210 0
-211 -157 0
-211 -173 0
-211 -179 0
-211 -130 0
-211 104 0
211 157 173 179 130 -104 0
-212 47 0
-212 134 0
-212 185 0
-212 55 0
-212 -14 0
212 -47 -134 -185 -55 14 0
-213 -65 0
-213 115 0
-213 -187 0
-213 112 0
-213 43 0
213 65 -115 187 -112 -43 0
-214 -114 0
-214 72 0
-214 155 0
-214 24 0
-214 -147 0
214 114 -72 -155 -24 147 0
-215 -63 0
-215 -190 0
-215 -120 0
-215 -5 0
-215 -174 0
215 63 190 120 5 174 0
211 212 213 214 215 0
-216 -186 0
-216 103 0
-216 -46 0
-216 -177 0
-216 15 0
216 186 -103 46 177 -15 0
-217 -34 0
-217 -68 0
-217 -102 0
-217 21 0
-217 5 0
217 34 68 102 -21 -5 0
-218 -154 0
-218 73 0
-218 43 0
-218 -37 0
-218 -14 0
218 154 -73 -43 37 14 0
-219 33 0
-219 -119 0
-219 -50 0
-219 -69 0
-219 -175 0
219 -33 119 50 69 175 0
-220 -169 0
-220 180 0
-220 176 0
-220 -97 0
-220 -92 0
220 169 -180 -176 97 92 0
216 217 218 219 220 0
-221 113 0
-221 -25 0
-221 78 0
-221 -102 0
-221 -177 0
221 -113 25 -78 102 177 0
-222 132 0
-222 -30 0
-222 -177 0
-222 -22 0
-222 80 0
222 -132 30 177 22 -80 0
-223 -175 0
-223 -135 0
-223 181 0
-223 141 0
-223 21 0
223 175 135 -181 -141 -21 0
-224 131 0
-224 170 0
-224 -36 0
-224 107 0
-224 160 0
224 -131 -170 36 -107 -160 0
-225 72 0
-225 180 0
-225 -35 0
-225 121 0
-225 -9 0
225 -72 -180 35 -121 9 0
221 222 223 224 225 0
-226 -94 0
-226 -54 0
-226 -1 0
-226 -100 0
-226 -50 0
226 94 54 1 100 50 0
-227 -25 0
-227 143 0
-227 66 0
-227 -175 0
-227 102 0
227 25 -143 -66 175 -102 0
-228 -94 0
-228 -144 0
-228 184 0
-228 159 0
-228 95 0
228 94 144 -184 -159 -95 0
-229 110 0
-229 63 0
-229 120 0
-229 106 0
-229 93 0
229 -110 -63 -120 -106 -93 0
-230 -33 0
-230 45 0
-230 105 0
-230 -190 0
-230 152 0
230 33 -45 -105 190 -152 0
226 227 228 229 230 0
-231 60 0
-231 97 0
-231 155 0
-231 65 0
-231 161 0
231 -60 -97 -155 -65 -161 0
-232 -126 0
-232 -156 0
-232 -75 0
-232 -175 0
-232 -3 0
232 126 156 75 175 3 0
-233 77 0
-233 117 0
-233 70 0
-233 -155 0
-233 -127 0
233 -77 -117 -70 155 127 0
-234 174 0
-234 189 0
-234 -115 0
-234 -173 0
-234 -79 0
234 -174 -189 115 173 79 0
-235 -56 0
-235 -88 0
-235 -73 0
-235 83 0
-235 -26 0
235 56 88 73 -83 26 0
231 232 233 234 235 0
-236 -63 0
-236 -36 0
-236 128 0
-236 -42 0
-236 -68 0
236 63 36 -128 42 68 0
-237 -130 0
-237 148 0
-237 71 0
-237 -177 0
-237 -92 0
237 130 -148 -71 177 92 0
-238 -183 0
-238 -35 0
-238 180 0
-238 -138 0
-238 -123 0
238 183 35 -180 138 123 0
-239 55 0
-239 -158 0
-239 54 0
-239 -139 0
-239 72 0
239 -55 158 -54 139 -72 0
-240 -144 0
-240 -129 0
-240 -26 0
-240 186 0
-240 -185 0
240 144 129 26 -186 185 0
236 237 238 239 240 0
-241 -185 0
-241 9 0
-241 -53 0
-241 151 0
-241 178 0
241 185 -9 53 -151 -178 0
-242 -28 0
-242 -14 0
-242 157 0
-242 -165 0
-242 167 0
242 28 14 -157 165 -167 0
-243 -24 0
-243 -30 0
-243 26 0
-243 157 0
-243 179 0
243 24 30 -26 -157 -179 0
-244 135 0
-244 150 0
-244 -78 0
-244 42 0
-244 115 0
244 -135 -150 78 -42 -115 0
-245 -61 0
-245 53 0
-245 -47 0
-245 15 0
-245 24 0
245 61 -53 47 -15 -24 0
241 242 243 244 245 0
-246 -50 0
-246 -181 0
-246 -172 0
-246 143 0
-246 -64 0
246 50 181 172 -143 64 0
-247 32 0
-247 132 0
-247 65 0
-247 147 0
-247 29 0
247 -32 -132 -65 -147 -29 0
-248 -170 0
-248 -150 0
-248 56 0
-248 96 0
-248 -172 0
248 170 150 -56 -96 172 0
-249 148 0
-249 -104 0
-249 -86 0
-249 68 0
-249 -79 0
249 -148 104 86 -68 79 0
-250 -178 0
-250 146 0
-250 141 0
-250 51 0
-250 115 0
250 178 -146 -141 -51 -115 0
246 247 248 249 250 0
-251 -18 0
-251 133 0
-251 -172 0
-251 -25 0
-251 157 0
251 18 -133 172 25 -157 0
-252 -7 0
-252 -139 0
-252 79 0
-252 143 0
-252 -127 0
252 7 139 -79 -143 127 0
-253 107 0
-253 168 0
-253 -20 0
-253 179 0
-253 -39 0
253 -107 -168 20 -179 39 0
-254 160 0
-254 165 0
-254 149 0
-254 -78 0
-254 -182 0
254 -160 -165 -149 78 182 0
-255 4 0
-255 -165 0
-255 124 0
-255 -125 0
-255 -24 0
255 -4 165 -124 125 24 0
251 252 253 254 255 0
-256 79 0
-256 132 0
-256 -81 0
-256 -43 0
-256 172 0
256 -79 -132 81 43 -172 0
-257 -152 0
-257 -97 0
-257 135 0
-257 -65 0
-257 -80 0
257 152 97 -135 65 80 0
-258 121 0
-258 -28 0
-258 33 0
-258 -18 0
-258 -186 0
258 -121 28 -33 18 186 0
-259 156 0
-259 119 0
-259 65 0
-259 -111 0
-259 41 0
259 -156 -119 -65 111 -41 0
-260 -64 0
-260 -47 0
-260 -120 0
-260 188 0
-260 6 0
260 64 47 120 -188 -6 0
256 257 258 259 260 0
-261 -41 0
-261 146 0
-261 45 0
-261 65 0
-261 -44 0
261 41 -146 -45 -65 44 0
-262 -2 0
-262 112 0
-262 7 0
-262 -72 0
-262 -163 0
262 2 -112 -7 72 163 0
-263 158 0
-263 185 0
-263 166 0
-263 122 0
-263 45 0
263 -158 -185 -166 -122 -45 0
-264 32 0
-264 33 0
-264 -158 0
-264 83 0
-264 60 0
264 -32 -33 158 -83 -60 0
-265 -82 0
-265 167 0
-265 -69 0
-265 -28 0
-265 166 0
265 82 -167 69 28 -166 0
261 262 263 264 265 0
-266 159 0
-266 -177 0
-266 -95 0
-266 -26 0
-266 -168 0
266 -159 177 95 26 168 0
-267 120 0
-267 -86 0
-267 112 0
-267 71 0
-267 -139 0
267 -120 86 -112 -71 139 0
-268 141 0
-268 150 0
-268 -80 0
-268 -178 0
-268 -64 0
268 -141 -150 80 178 64 0
-269 127 0
-269 57 0
-269 94 0
-269 -73 0
-269 46 0
269 -127 -57 -94 73 -46 0
-270 -156 0
-270 135 0
-270 -143 0
-270 116 0
-270 -130 0
270 156 -135 143 -116 130 0
266 267 268 269 270 0
-271 180 0
-271 -130 0
-271 183 0
-271 -77 0
-271 124 0
271 -180 130 -183 77 -124 0
-272 -156 0
-272 13 0
-272 -21 0
-272 126 0
-272 -28 0
272 156 -13 21 -126 28 0
-273 80 0
-273 -151 0
-273 153 0
-273 -65 0
-273 50 0
273 -80 151 -153 65 -50 0
-274 -190 0
-274 -55 0
-274 -25 0
-274 77 0
-274 135 0
274 190 55 25 -77 -135 0
-275 -181 0
-275 -141 0
-275 -179 0
-275 128 0
-275 -111 0
275 181 141 179 -128 111 0
271 272 273 274 275 0
-276 -59 0
-276 61 0
-276 -21 0
-276 -79 0
-276 161 0
276 59 -61 21 79 -161 0
-277 -127 0
-277 132 0
-277 177 0
-277 5 0
-277 -171 0
277 127 -132 -177 -5 171 0
-278 123 0
-278 -28 0
-278 4 0
-278 117 0
-278 80 0
278 -123 28 -4 -117 -80 0
-279 146 0
-279 -68 0
-279 17 0
-279 -144 0
-279 -50 0
279 -146 68 -17 144 50 0
-280 -160 0
-280 -22 0
-280 167 0
-280 119 0
-280 -126 0
280 160 22 -167 -119 126 0
276 277 278 279 280 0
-281 166 0
-281 41 0
-281 103 0
-281 45 0
-281 -180 0
281 -166 -41 -103 -45 180 0
-282 -31 0
-282 -46 0
-282 161 0
-282 -34 0
-282 100 0
282 31 46 -161 34 -100 0
-283 -129 0
-283 -119 0
-283 157 0
-283 -180 0
-283 -11 0
283 129 119 -157 180 11 0
-284 28 0
-284 131 0
-284 -64 0
-284 103 0
-284 24 0
284 -28 -131 64 -103 -24 0
-285 57 0
-285 67 0
-285 -33 0
-285 148 0
-285 -30 0
285 -57 -67 33 -148 30 0
281 282 283 284 285 0
-286 134 0
-286 179 0
-286 127 0
-286 6 0
-286 -184 0
286 -134 -179 -127 -6 184 0
-287 -24 0
-287 187 0
-287 -174 0
-287 -123 0
-287 -146 0
287 24 -187 174 123 146 0
-288 -101 0
-288 -15 0
-288 170 0
-288 120 0
-288 -23 0
288 101 15 -170 -120 23 0
-289 112 0
-289 173 0
-289 33 0
-289 -83 0
-289 -180 0
289 -112 -173 -33 83 180 0
-290 -108 0
-290 9 0
-290 137 0
-290 -184 0
-290 94 0
290 108 -9 -137 184 -94 0
286 287 288 289 290 0
-291 170 0
-291 110 0
-291 -23 0
-291 -87 0
-291 -86 0
291 -170 -110 23 87 86 0
-292 160 0
-292 -45 0
-292 94 0
-292 182 0
-292 -151 0
292 -160 45 -94 -182 151 0
-293 188 0
-293 72 0
-293 -106 0
-293 1 0
-293 136 0
293 -188 -72 106 -1 -136 0
-294 112 0
-294 -108 0
-294 -163 0
-294 -101 0
-294 17 0
294 -112 108 163 101 -17 0
-295 -8 0
-295 37 0
-295 -5 0
-295 146 0
-295 -68 0
295 8 -37 5 -146 68 0
291 292 293 294 295 0
-296 -61 0
-296 -136 0
-296 50 0
-296 134 0
-296 69 0
296 61 136 -50 -134 -69 0
-297 16 0
-297 22 0
-297 -20 0
-297 98 0
-297 -102 0
297 -16 -22 20 -98 102 0
-298 -140 0
-298 -188 0
-298 129 0
-298 84 0
-298 -150 0
298 140 188 -129 -84 150 0
-299 -57 0
-299 26 0
-299 127 0
-299 64 0
-299 105 0
299 57 -26 -127 -64 -105 0
-300 -20 0
-300 -149 0
-300 -63 0
-300 -90 0
-300 129 0
300 20 149 63 90 -129 0
296 297 298 299 300 0
-301 116 0
-301 -39 0
-301 -3 0
-301 65 0
-301 16 0
301 -116 39 3 -65 -16 0
-302 127 0
-302 -68 0
-302 144 0
-302 -53 0
-302 17 0
302 -127 68 -144 53 -17 0
-303 28 0
-303 -108 0
-303 -168 0
-303 -2 0
-303 -101 0
303 -28 108 168 2 101 0
-304 -112 0
-304 -164 0
-304 22 0
-304 -156 0
-304 -72 0
304 112 164 -22 156 72 0
-305 -92 0
-305 -130 0
-305 114 0
-305 -14 0
-305 119 0
305 92 130 -114 14 -119 0
301 302 303 304 305 0
-306 -44 0
-306 -107 0
-306 68 0
-306 176 0
-306 -145 0
306 44 107 -68 -176 145 0
-307 -165 0
-307 62 0
-307 190 0
-307 103 0
-307 -54 0
307 165 -62 -190 -103 54 0
-308 -128 0
-308 -190 0
-308 154 0
-308 8 0
-308 -60 0
308 128 190 -154 -8 60 0
-309 127 0
-309 -98 0
-309 -155 0
-309 34 0
-309 -91 0
309 -127 98 155 -34 91 0
-310 -44 0
-310 -175 0
-310 -74 0
-310 -20 0
-310 -107 0
310 44 175 74 20 107 0
306 307 308 309 310 0
-311 -132 0
-311 55 0
-311 -120 0
-311 -181 0
-311 163 0
311 132 -55 120 181 -163 0
-312 186 0
-312 -111 0
-312 -124 0
-312 -64 0
-312 -181 0
312 -186 111 124 64 181 0
-313 -105 0
-313 -29 0
-313 11 0
-313 188 0
-313 34 0
313 105 29 -11 -188 -34 0
-314 -38 0
-314 -63 0
-314 -65 0
-314 -147 0
-314 165 0
314 38 63 65 147 -165 0
-315 -124 0
-315 -6 0
-315 157 0
-315 56 0
-315 40 0
315 124 6 -157 -56 -40 0
311 312 313 314 315 0
-316 66 0
-316 73 0
-316 27 0
-316 155 0
-316 9 0
316 -66 -73 -27 -155 -9 0
-317 -4 0
-317 -10 0
-317 -147 0
-317 -75 0
-317 -113 0
317 4 10 147 75 113 0
-318 119 0
-318 43 0
-318 17 0
-318 -79 0
-318 96 0
318 -119 -43 -17 79 -96 0
-319 -77 0
-319 4 0
-319 -9 0
-319 48 0
-319 -26 0
319 77 -4 9 -48 26 0
-320 -15 0
-320 -159 0
-320 -119 0
-320 99 0
-320 -117 0
320 15 159 119 -99 117 0
316 317 318 319 320 0
-321 -53 0
-321 168 0
-321 -113 0
-321 174 0
-321 -132 0
321 53 -168 113 -174 132 0
-322 10 0
-322 -150 0
-322 132 0
-322 97 0
-322 -168 0
322 -10 150 -132 -97 168 0
-323 40 0
-323 -105 0
-323 54 0
-323 55 0
-323 62 0
323 -40 105 -54 -55 -62 0
-324 -34 0
-324 -150 0
-324 22 0
-324 -139 0
-324 -54 0
324 34 150 -22 139 54 0
-325 108 0
-325 -100 0
-325 131 0
-325 -24 0
-325 159 0
325 -108 100 -131 24 -159 0
321 322 323 324 325 0
-326 80 0
-326 170 0
-326 168 0
-326 -19 0
-326 137 0
326 -80 -170 -168 19 -137 0
-327 -65 0
-327 -136 0
-327 122 0
-327 -148 0
-327 -1 0
327 65 136 -122 148 1 0
-328 37 0
-328 115 0
-328 -156 0
-328 -110 0
-328 36 0
328 -37 -115 156 110 -36 0
-329 115 0
-329 -104 0
-329 -140 0
-329 149 0
-329 -131 0
329 -115 104 140 -149 131 0
-330 32 0
-330 187 0
-330 -12 0
-330 -13 0
-330 53 0
330 -32 -187 12 13 -53 0
326 327 328 329 330 0
-331 42 0
-331 -46 0
-331 -20 0
-331 148 0
-331 110 0
331 -42 46 20 -148 -110 0
-332 114 0
-332 185 0
-332 164 0
-332 80 0
-332 4 0
332 -114 -185 -164 -80 -4 0
-333 101 0
-333 184 0
-333 157 0
-333 93 0
-333 42 0
333 -101 -184 -157 -93 -42 0
-334 54 0
-334 2 0
-334 -133 0
-334 12 0
-334 166 0
334 -54 -2 133 -12 -166 0
-335 -97 0
-335 19 0
-335 -73 0
-335 -7 0
-335 148 0
335 97 -19 73 7 -148 0
331 332 333 334 335 0
-336 -8 0
-336 -10 0
-336 -138 0
-336 11 0
-336 127 0
336 8 10 138 -11 -127 0
-337 98 0
-337 96 0
-337 51 0
-337 -82 0
-337 142 0
337 -98 -96 -51 82 -142 0
-338 -123 0
-338 120 0
-338 150 0
-338 -158 0
-338 108 0
338 123 -120 -150 158 -108 0
-339 -133 0
-339 9 0
-339 -127 0
-339 111 0
-339 86 0
339 133 -9 127 -111 -86 0
-340 135 0
-340 71 0
-340 139 0
-340 -41 0
-340 -19 0
340 -135 -71 -139 41 19 0
336 337 338 339 340 0
-341 29 0
-341 -37 0
-341 173 0
-341 14 0
-341 -34 0
341 -29 37 -173 -14 34 0
-342 -133 0
-342 -6 0
-342 -147 0
-342 -35 0
-342 62 0
342 133 6 147 35 -62 0
-343 16 0
-343 181 0
-343 -172 0
-343 -120 0
-343 185 0
343 -16 -181 172 120 -185 0
-344 -115 0
-344 185 0
-344 187 0
-344 -40 0
-344 -157 0
344 115 -185 -187 40 157 0
-345 82 0
-345 12 0
-345 -55 0
-345 168 0
-345 83 0
345 -82 -12 55 -168 -83 0
341 342 343 344 345 0
-346 159 0
-346 -92 0
-346 164 0
-346 -148 0
-346 -46 0
346 -159 92 -164 148 46 0
-347 -181 0
-347 152 0
-347 124 0
-347 -85 0
-347 -49 0
347 181 -152 -124 85 49 0
-348 -70 0
-348 15 0
-348 -143 0
-348 148 0
-348 -99 0
348 70 -15 143 -148 99 0
-349 113 0
-349 83 0
-349 43 0
-349 107 0
-349 -71 0
349 -113 -83 -43 -107 71 0
-350 30 0
-350 -165 0
-350 173 0
-350 35 0
-350 93 0
350 -30 165 -173 -35 -93 0
346 347 348 349 350 0
-351 -168 0
-351 164 0
-351 -141 0
-351 -159 0
-351 -174 0
351 168 -164 141 159 174 0
-352 -3 0
-352 115 0
-352 -24 0
-352 -150 0
-352 167 0
352 3 -115 24 150 -167 0
-353 -143 0
-353 133 0
-353 99 0
-353 -188 0
-353 -79 0
353 143 -133 -99 188 79 0
-354 -1 0
-354 116 0
-354 -51 0
-354 47 0
-354 -11 0
354 1 -116 51 -47 11 0
-355 -86 0
-355 -159 0
-355 -79 0
-355 -139 0
-355 20 0
355 86 159 79 139 -20 0
351 352 353 354 355 0
-356 -74 0
-356 119 0
-356 177 0
-356 60 0
-356 146 0
356 74 -119 -177 -60 -146 0
-357 -2 0
-357 -116 0
-357 129 0
-357 29 0
-357 1 0
357 2 116 -129 -29 -1 0
-358 110 0
-358 155 0
-358 5 0
-358 17 0
-358 -90 0
358 -110 -155 -5 -17 90 0
-359 39 0
-359 -129 0
-359 -145 0
-359 32 0
-359 -50 0
359 -39 129 145 -32 50 0
-360 -134 0
-360 -190 0
-360 184 0
-360 -165 0
-360 119 0
360 134 190 -184 165 -119 0
356 357 358 359 360 0
-361 59 0
-361 -79 0
-361 -137 0
-361 70 0
-361 -39 0
361 -59 79 137 -70 39 0
-362 189 0
-362 115 0
-362 77 0
-362 -11 0
-362 146 0
362 -189 -115 -77 11 -146 0
-363 -186 0
-363 -12 0
-363 174 0
-363 93 0
-363 -150 0
363 186 12 -174 -93 150 0
-364 -39 0
-364 -161 0
-364 113 0
-364 -105 0
-364 163 0
364 39 161 -113 105 -163 0
-365 57 0
-365 126 0
-365 -149 0
-365 143 0
-365 -174 0
365 -57 -126 149 -143 174 0
361 362 363 364 365 0
-366 -34 0
-366 -95 0
-366 133 0
-366 -109 0
-366 -48 0
366 34 95 -133 109 48 0
-367 -128 0
-367 120 0
-367 -23 0
-367 -109 0
-367 179 0
367 128 -120 23 109 -179 0
-368 -22 0
-368 44 0
-368 -2 0
-368 -95 0
-368 64 0
368 22 -44 2 95 -64 0
-369 27 0
-369 178 0
-369 9 0
-369 26 0
-369 179 0
369 -27 -178 -9 -26 -179 0
-370 -137 0
-370 -170 0
-370 156 0
-370 190 0
-370 153 0
370 137 170 -156 -190 -153 0
366 367 368 369 370 0
-371 -37 0
-371 136 0
-371 -24 0
-371 -67 0
-371 46 0
371 37 -136 24 67 -46 0
-372 -64 0
-372 112 0
-372 186 0
-372 -115 0
-372 -189 0
372 64 -112 -186 115 189 0
-373 17 0
-373 150 0
-373 90 0
-373 -29 0
-373 132 0
373 -17 -150 -90 29 -132 0
-374 15 0
-374 91 0
-374 16 0
-374 -49 0
-374 175 0
374 -15 -91 -16 49 -175 0
-375 65 0
-375 114 0
-375 188 0
-375 151 0
-375 88 0
375 -65 -114 -188 -151 -88 0
371 372 373 374 375 0
-376 183 0
-376 -66 0
-376 -158 0
-376 81 0
-376 30 0
376 -183 66 158 -81 -30 0
-377 22 0
-377 82 0
-377 -162 0
-377 70 0
-377 59 0
377 -22 -82 162 -70 -59 0
-378 165 0
-378 -137 0
-378 -17 0
-378 68 0
-378 -28 0
378 -165 137 17 -68 28 0
-379 141 0
-379 39 0
-379 42 0
-379 76 0
-379 48 0
379 -141 -39 -42 -76 -48 0
-380 60 0
-380 147 0
-380 7 0
-380 25 0
-380 -150 0
380 -60 -147 -7 -25 150 0
376 377 378 379 380 0
-381 -118 0
-381 95 0
-381 148 0
-381 25 0
-381 42 0
381 118 -95 -148 -25 -42 0
-382 91 0
-382 171 0
-382 173 0
-382 131 0
-382 -117 0
382 -91 -171 -173 -131 117 0
-383 -94 0
-383 115 0
-383 174 0
-383 -180 0
-383 -144 0
383 94 -115 -174 180 144 0
-384 -99 0
-384 76 0
-384 93 0
-384 -181 0
-384 23 0
384 99 -76 -93 181 -23 0
-385 124 0
-385 71 0
-385 -180 0
-385 179 0
-385 46 0
385 -124 -71 180 -179 -46 0
381 382 383 384 385 0
-386 72 0
-386 -140 0
-386 131 0
-386 -23 0
-386 -68 0
386 -72 140 -131 23 68 0
-387 179 0
-387 -160 0
-387 52 0
-387 26 0
-387 129 0
387 -179 160 -52 -26 -129 0
-388 186 0
-388 73 0
-388 -49 0
-388 -121 0
-388 114 0
388 -186 -73 49 121 -114 0
-389 -172 0
-389 -4 0
-389 -95 0
-389 -164 0
-389 -7 0
389 172 4 95 164 7 0
-390 145 0
-390 -73 0
-390 -93 0
-390 -20 0
-390 188 0
390 -145 73 93 20 -188 0
386 387 388 389 390 0
-391 -170 0
-391 74 0
-391 186 0
-391 -171 0
-391 -151 0
391 170 -74 -186 171 151 0
-392 -28 0
-392 -87 0
-392 -62 0
-392 -180 0
-392 -121 0
392 28 87 62 180 121 0
-393 -150 0
-393 82 0
-393 -40 0
-393 109 0
-393 5 0
393 150 -82 40 -109 -5 0
-394 81 0
-394 134 0
-394 -31 0
-394 -2 0
-394 -153 0
394 -81 -134 31 2 153 0
-395 -107 0
-395 7 0
-395 -171 0
-395 -116 0
-395 -8 0
395 107 -7 171 116 8 0
391 392 393 394 395 0
-396 -68 0
-396 -165 0
-396 -112 0
-396 78 0
-396 -136 0
396 68 165 112 -78 136 0
-397 -71 0
-397 -161 0
-397 -113 0
-397 -61 0
-397 -87 0
397 71 161 113 61 87 0
-398 -92 0
-398 -90 0
-398 55 0
-398 8 0
-398 25 0
398 92 90 -55 -8 -25 0
-399 -66 0
-399 -77 0
-399 84 0
-399 -142 0
-399 36 0
399 66 77 -84 142 -36 0
-400 124 0
-400 -107 0
-400 10 0
-400 38 0
-400 134 0
400 -124 107 -10 -38 -134 0
396 397 398 399 400 0
-401 -123 0
-401 -95 0
-401 -37 0
-401 159 0
-401 38 0
401 123 95 37 -159 -38 0
-402 10 0
-402 173 0
-402 28 0
-402 130 0
-402 -115 0
402 -10 -173 -28 -130 115 0
-403 143 0
-403 6 0
-403 -166 0
-403 -135 0
-403 -102 0
403 -143 -6 166 135 102 0
-404 57 0
-404 -81 0
-404 -124 0
-404 -128 0
-404 66 0
404 -57 81 124 128 -66 0
-405 -159 0
-405 -69 0
-405 33 0
-405 45 0
-405 -102 0
405 159 69 -33 -45 102 0
401 402 403 404 405 0
-406 22 0
-406 61 0
-406 151 0
-406 26 0
-406 34 0
406 -22 -61 -151 -26 -34 0
-407 129 0
-407 -47 0
-407 109 0
-407 79 0
-407 20 0
407 -129 47 -109 -79 -20 0
-408 -5 0
-408 185 0
-408 -2 0
-408 -58 0
-408 -17 0
408 5 -185 2 58 17 0
-409 78 0
-409 17 0
-409 -69 0
-409 127 0
-409 -188 0
409 -78 -17 69 -127 188 0
-410 154 0
-410 157 0
-410 180 0
-410 74 0
-410 30 0
410 -154 -157 -180 -74 -30 0
406 407 408 409 410 0
-411 -151 0
-411 -32 0
-411 42 0
-411 -137 0
-411 -116 0
411 151 32 -42 137 116 0
-412 184 0
-412 103 0
-412 16 0
-412 138 0
-412 174 0
412 -184 -103 -16 -138 -174 0
-413 -25 0
-413 -127 0
-413 5 0
-413 140 0
-413 113 0
413 25 127 -5 -140 -113 0
-414 143 0
-414 117 0
-414 23 0
-414 -129 0
-414 -149 0
414 -143 -117 -23 129 149 0
-415 -59 0
-415 -56 0
-415 57 0
-415 16 0
-415 60 0
415 59 56 -57 -16 -60 0
411 412 413 414 415 0
-416 -89 0
-416 -113 0
-416 79 0
-416 -22 0
-416 -15 0
416 89 113 -79 22 15 0
-417 11 0
-417 189 0
-417 38 0
-417 141 0
-417 -36 0
417 -11 -189 -38 -141 36 0
-418 33 0
-418 18 0
-418 15 0
-418 94 0
-418 -122 0
418 -33 -18 -15 -94 122 0
-419 31 0
-419 172 0
-419 133 0
-419 -190 0
-419 60 0
419 -31 -172 -133 190 -60 0
-420 144 0
-420 -25 0
-420 -65 0
-420 180 0
-420 -61 0
420 -144 25 65 -180 61 0
416 417 418 419 420 0
-421 -62 0
-421 85 0
-421 98 0
-421 -159 0
-421 -58 0
421 62 -85 -98 159 58 0
-422 -72 0
-422 -172 0
-422 -175 0
-422 -156 0
-422 -2 0
422 72 172 175 156 2 0
-423 -64 0
-423 67 0
-423 -120 0
-423 -142 0
-423 61 0
423 64 -67 120 142 -61 0
-424 72 0
-424 -27 0
-424 -162 0
-424 -185 0
-424 -122 0
424 -72 27 162 185 122 0
-425 12 0
-425 81 0
-425 65 0
-425 -155 0
-425 -32 0
425 -12 -81 -65 155 32 0
421 422 423 424 425 0
-426 103 0
-426 -33 0
-426 186 0
-426 155 0
-426 -190 0
426 -103 33 -186 -155 190 0
-427 -90 0
-427 -110 0
-427 -28 0
-427 87 0
-427 116 0
427 90 110 28 -87 -116 0
-428 -74 0
-428 87 0
-428 47 0
-428 9 0
-428 -40 0
428 74 -87 -47 -9 40 0
-429 -176 0
-429 17 0
-429 95 0
-429 80 0
-429 -178 0
429 176 -17 -95 -80 178 0
-430 6 0
-430 -127 0
-430 -75 0
-430 126 0
-430 40 0
430 -6 127 75 -126 -40 0
426 427 428 429 430 0
